NAME : B-n68-k9.701709.tour
COMMENT : Length = 701709
COMMENT : Found by LKH [Keld Helsgaun] Sun Dec 17 19:13:31 2017
TYPE : TOUR
DIMENSION : 76
TOUR_SECTION
1
64
26
40
24
12
4
30
68
69
42
38
9
3
23
50
72
32
5
61
36
48
74
65
28
67
44
47
14
76
43
37
33
7
59
11
25
19
29
75
20
54
39
51
41
56
70
8
22
46
13
49
10
27
73
16
57
34
2
18
21
53
58
52
62
71
66
6
15
63
55
31
60
17
35
45
-1
EOF
